\* Sudoku_4x4 *\
Minimize
Arbitrary_Objective_Function: __dummy
Subject To
_C1: Choice_1_1_1 + Choice_2_1_1 + Choice_3_1_1 + Choice_4_1_1 = 1
_C10: Choice_1_3_2 + Choice_2_3_2 + Choice_3_3_2 + Choice_4_3_2 = 1
_C11: Choice_1_3_3 + Choice_2_3_3 + Choice_3_3_3 + Choice_4_3_3 = 1
_C12: Choice_1_3_4 + Choice_2_3_4 + Choice_3_3_4 + Choice_4_3_4 = 1
_C13: Choice_1_4_1 + Choice_2_4_1 + Choice_3_4_1 + Choice_4_4_1 = 1
_C14: Choice_1_4_2 + Choice_2_4_2 + Choice_3_4_2 + Choice_4_4_2 = 1
_C15: Choice_1_4_3 + Choice_2_4_3 + Choice_3_4_3 + Choice_4_4_3 = 1
_C16: Choice_1_4_4 + Choice_2_4_4 + Choice_3_4_4 + Choice_4_4_4 = 1
_C17: Choice_1_1_1 + Choice_1_1_2 + Choice_1_1_3 + Choice_1_1_4 = 1
_C18: Choice_1_2_1 + Choice_1_2_2 + Choice_1_2_3 + Choice_1_2_4 = 1
_C19: Choice_1_3_1 + Choice_1_3_2 + Choice_1_3_3 + Choice_1_3_4 = 1
_C2: Choice_1_1_2 + Choice_2_1_2 + Choice_3_1_2 + Choice_4_1_2 = 1
_C20: Choice_1_4_1 + Choice_1_4_2 + Choice_1_4_3 + Choice_1_4_4 = 1
_C21: Choice_1_1_1 + Choice_1_2_1 + Choice_1_3_1 + Choice_1_4_1 = 1
_C22: Choice_1_1_2 + Choice_1_2_2 + Choice_1_3_2 + Choice_1_4_2 = 1
_C23: Choice_1_1_3 + Choice_1_2_3 + Choice_1_3_3 + Choice_1_4_3 = 1
_C24: Choice_1_1_4 + Choice_1_2_4 + Choice_1_3_4 + Choice_1_4_4 = 1
_C25: Choice_1_1_1 + Choice_1_1_2 + Choice_1_2_1 + Choice_1_2_2 = 1
_C26: Choice_1_1_3 + Choice_1_1_4 + Choice_1_2_3 + Choice_1_2_4 = 1
_C27: Choice_1_3_1 + Choice_1_3_2 + Choice_1_4_1 + Choice_1_4_2 = 1
_C28: Choice_1_3_3 + Choice_1_3_4 + Choice_1_4_3 + Choice_1_4_4 = 1
_C29: Choice_2_1_1 + Choice_2_1_2 + Choice_2_1_3 + Choice_2_1_4 = 1
_C3: Choice_1_1_3 + Choice_2_1_3 + Choice_3_1_3 + Choice_4_1_3 = 1
_C30: Choice_2_2_1 + Choice_2_2_2 + Choice_2_2_3 + Choice_2_2_4 = 1
_C31: Choice_2_3_1 + Choice_2_3_2 + Choice_2_3_3 + Choice_2_3_4 = 1
_C32: Choice_2_4_1 + Choice_2_4_2 + Choice_2_4_3 + Choice_2_4_4 = 1
_C33: Choice_2_1_1 + Choice_2_2_1 + Choice_2_3_1 + Choice_2_4_1 = 1
_C34: Choice_2_1_2 + Choice_2_2_2 + Choice_2_3_2 + Choice_2_4_2 = 1
_C35: Choice_2_1_3 + Choice_2_2_3 + Choice_2_3_3 + Choice_2_4_3 = 1
_C36: Choice_2_1_4 + Choice_2_2_4 + Choice_2_3_4 + Choice_2_4_4 = 1
_C37: Choice_2_1_1 + Choice_2_1_2 + Choice_2_2_1 + Choice_2_2_2 = 1
_C38: Choice_2_1_3 + Choice_2_1_4 + Choice_2_2_3 + Choice_2_2_4 = 1
_C39: Choice_2_3_1 + Choice_2_3_2 + Choice_2_4_1 + Choice_2_4_2 = 1
_C4: Choice_1_1_4 + Choice_2_1_4 + Choice_3_1_4 + Choice_4_1_4 = 1
_C40: Choice_2_3_3 + Choice_2_3_4 + Choice_2_4_3 + Choice_2_4_4 = 1
_C41: Choice_3_1_1 + Choice_3_1_2 + Choice_3_1_3 + Choice_3_1_4 = 1
_C42: Choice_3_2_1 + Choice_3_2_2 + Choice_3_2_3 + Choice_3_2_4 = 1
_C43: Choice_3_3_1 + Choice_3_3_2 + Choice_3_3_3 + Choice_3_3_4 = 1
_C44: Choice_3_4_1 + Choice_3_4_2 + Choice_3_4_3 + Choice_3_4_4 = 1
_C45: Choice_3_1_1 + Choice_3_2_1 + Choice_3_3_1 + Choice_3_4_1 = 1
_C46: Choice_3_1_2 + Choice_3_2_2 + Choice_3_3_2 + Choice_3_4_2 = 1
_C47: Choice_3_1_3 + Choice_3_2_3 + Choice_3_3_3 + Choice_3_4_3 = 1
_C48: Choice_3_1_4 + Choice_3_2_4 + Choice_3_3_4 + Choice_3_4_4 = 1
_C49: Choice_3_1_1 + Choice_3_1_2 + Choice_3_2_1 + Choice_3_2_2 = 1
_C5: Choice_1_2_1 + Choice_2_2_1 + Choice_3_2_1 + Choice_4_2_1 = 1
_C50: Choice_3_1_3 + Choice_3_1_4 + Choice_3_2_3 + Choice_3_2_4 = 1
_C51: Choice_3_3_1 + Choice_3_3_2 + Choice_3_4_1 + Choice_3_4_2 = 1
_C52: Choice_3_3_3 + Choice_3_3_4 + Choice_3_4_3 + Choice_3_4_4 = 1
_C53: Choice_4_1_1 + Choice_4_1_2 + Choice_4_1_3 + Choice_4_1_4 = 1
_C54: Choice_4_2_1 + Choice_4_2_2 + Choice_4_2_3 + Choice_4_2_4 = 1
_C55: Choice_4_3_1 + Choice_4_3_2 + Choice_4_3_3 + Choice_4_3_4 = 1
_C56: Choice_4_4_1 + Choice_4_4_2 + Choice_4_4_3 + Choice_4_4_4 = 1
_C57: Choice_4_1_1 + Choice_4_2_1 + Choice_4_3_1 + Choice_4_4_1 = 1
_C58: Choice_4_1_2 + Choice_4_2_2 + Choice_4_3_2 + Choice_4_4_2 = 1
_C59: Choice_4_1_3 + Choice_4_2_3 + Choice_4_3_3 + Choice_4_4_3 = 1
_C6: Choice_1_2_2 + Choice_2_2_2 + Choice_3_2_2 + Choice_4_2_2 = 1
_C60: Choice_4_1_4 + Choice_4_2_4 + Choice_4_3_4 + Choice_4_4_4 = 1
_C61: Choice_4_1_1 + Choice_4_1_2 + Choice_4_2_1 + Choice_4_2_2 = 1
_C62: Choice_4_1_3 + Choice_4_1_4 + Choice_4_2_3 + Choice_4_2_4 = 1
_C63: Choice_4_3_1 + Choice_4_3_2 + Choice_4_4_1 + Choice_4_4_2 = 1
_C64: Choice_4_3_3 + Choice_4_3_4 + Choice_4_4_3 + Choice_4_4_4 = 1
_C65: Choice_4_2_1 = 1
_C66: Choice_3_1_2 = 1
_C67: Choice_2_2_2 = 1
_C68: Choice_4_3_4 = 1
_C69: Choice_1_4_3 = 1
_C7: Choice_1_2_3 + Choice_2_2_3 + Choice_3_2_3 + Choice_4_2_3 = 1
_C8: Choice_1_2_4 + Choice_2_2_4 + Choice_3_2_4 + Choice_4_2_4 = 1
_C9: Choice_1_3_1 + Choice_2_3_1 + Choice_3_3_1 + Choice_4_3_1 = 1
Bounds
 __dummy = 0
Binaries
Choice_1_1_1
Choice_1_1_2
Choice_1_1_3
Choice_1_1_4
Choice_1_2_1
Choice_1_2_2
Choice_1_2_3
Choice_1_2_4
Choice_1_3_1
Choice_1_3_2
Choice_1_3_3
Choice_1_3_4
Choice_1_4_1
Choice_1_4_2
Choice_1_4_3
Choice_1_4_4
Choice_2_1_1
Choice_2_1_2
Choice_2_1_3
Choice_2_1_4
Choice_2_2_1
Choice_2_2_2
Choice_2_2_3
Choice_2_2_4
Choice_2_3_1
Choice_2_3_2
Choice_2_3_3
Choice_2_3_4
Choice_2_4_1
Choice_2_4_2
Choice_2_4_3
Choice_2_4_4
Choice_3_1_1
Choice_3_1_2
Choice_3_1_3
Choice_3_1_4
Choice_3_2_1
Choice_3_2_2
Choice_3_2_3
Choice_3_2_4
Choice_3_3_1
Choice_3_3_2
Choice_3_3_3
Choice_3_3_4
Choice_3_4_1
Choice_3_4_2
Choice_3_4_3
Choice_3_4_4
Choice_4_1_1
Choice_4_1_2
Choice_4_1_3
Choice_4_1_4
Choice_4_2_1
Choice_4_2_2
Choice_4_2_3
Choice_4_2_4
Choice_4_3_1
Choice_4_3_2
Choice_4_3_3
Choice_4_3_4
Choice_4_4_1
Choice_4_4_2
Choice_4_4_3
Choice_4_4_4
End
